
Gurobi 9.5.0 (linux64) logging started Tue Sep 12 16:39:17 2023

Set parameter LogFile to value "/vsc-hard-mounts/leuven-data/348/vsc34888/JointResearch/05.Models/06.Benchmarking/A.The_full_year_MILP/9n/openStarNet_9n.log"
Set parameter Method to value 2
Set parameter MIPFocus to value 1
Set parameter Presolve to value 2
Set parameter RINS to value 100
Set parameter MIPGap to value 0.01
Set parameter Threads to value 36
Set parameter TimeLimit to value 76000
Set parameter IterationLimit to value 76000000
Gurobi Optimizer version 9.5.0 build v9.5.0rc5 (linux64)
Thread count: 36 physical cores, 36 logical processors, using up to 36 threads
Optimize a model with 4210755 rows, 1903327 columns and 13652102 nonzeros
Model fingerprint: 0x35c25775
Coefficient statistics:
  Matrix range     [5e-04, 2e+02]
  Objective range  [1e+00, 1e+00]
  Bounds range     [4e-05, 1e+00]
  RHS range        [4e-05, 1e+00]
Presolve removed 1439289 rows and 513274 columns (presolve time = 6s) ...
Presolve removed 1439289 rows and 513274 columns (presolve time = 13s) ...
Presolve removed 1439289 rows and 513274 columns (presolve time = 15s) ...
Presolve removed 1439289 rows and 522010 columns
Presolve time: 22.37s
Presolved: 2771466 rows, 1381317 columns, 10084875 nonzeros

Ordering time: 1.38s

Barrier statistics:
 Dense cols : 12
 AA' NZ     : 3.170e+07
 Factor NZ  : 6.155e+07 (roughly 2.0 GB of memory)
 Factor Ops : 1.812e+09 (less than 1 second per iteration)
 Threads    : 36

                  Objective                Residual
Iter       Primal          Dual         Primal    Dual     Compl     Time
   0   5.63139706e+06 -1.59434241e+08  3.06e+01 5.00e+01  3.04e+02    29s
   1   2.66498569e+06 -8.94126078e+07  1.40e+01 4.53e+00  1.20e+02    31s
   2   9.02247680e+05 -4.53756899e+07  4.37e+00 5.95e-09  3.72e+01    32s
   3   1.33134424e+05 -2.73671609e+07  2.61e-01 4.68e-08  7.13e+00    34s
   4   7.05058356e+04 -3.45530522e+06  1.36e-02 5.61e-09  7.65e-01    36s
   5   2.43558975e+04 -1.08245498e+06  3.08e-03 1.66e-09  2.36e-01    37s
   6   4.63812575e+03 -1.56788422e+05  2.79e-04 2.10e-10  3.42e-02    38s
   7   2.38969034e+03 -2.32364912e+04  1.45e-06 4.54e-11  5.43e-03    39s
   8   1.35328626e+03 -4.76479490e+03  9.77e-08 1.58e-11  1.30e-03    41s
   9   6.41719795e+02 -6.47344548e+02  4.58e-09 3.15e-12  2.73e-04    43s
  10   4.93113553e+02  5.67418816e+01  9.80e-10 3.18e-12  9.25e-05    45s
  11   4.50620768e+02  2.68143163e+02  5.01e-10 7.89e-13  3.87e-05    46s
  12   4.45768764e+02  3.14102347e+02  4.62e-10 1.01e-12  2.79e-05    47s
  13   4.23180375e+02  3.23527251e+02  2.58e-10 9.02e-13  2.11e-05    48s
  14   4.20293887e+02  3.24462178e+02  2.37e-10 2.42e-13  2.03e-05    50s
  15   4.17691766e+02  3.28803073e+02  2.19e-10 3.62e-13  1.88e-05    51s
  16   4.15068959e+02  3.33485911e+02  2.00e-10 4.90e-13  1.73e-05    52s
  17   4.14226864e+02  3.34913013e+02  1.94e-10 7.46e-13  1.68e-05    54s
  18   4.09824687e+02  3.41189541e+02  1.63e-10 1.16e-12  1.45e-05    56s
  19   4.08008369e+02  3.46258056e+02  1.50e-10 8.46e-13  1.31e-05    58s
  20   4.06070191e+02  3.48899205e+02  1.35e-10 5.33e-13  1.21e-05    61s
  21   4.03973656e+02  3.52291953e+02  1.19e-10 1.08e-12  1.10e-05    63s
  22   4.00908459e+02  3.56472215e+02  9.41e-11 1.31e-12  9.42e-06    65s
  23   3.98505650e+02  3.58967534e+02  7.56e-11 5.47e-13  8.38e-06    68s
  24   3.97173501e+02  3.62987469e+02  6.44e-11 8.17e-13  7.24e-06    70s
  25   3.96569616e+02  3.63747181e+02  5.93e-11 5.90e-13  6.95e-06    71s
  26   3.95296499e+02  3.66582535e+02  4.88e-11 4.26e-13  6.08e-06    74s
  27   3.94666448e+02  3.68505084e+02  4.40e-11 9.52e-13  5.54e-06    81s
  28   3.94478791e+02  3.68927825e+02  4.23e-11 4.26e-14  5.41e-06    86s
  29   3.93542686e+02  3.69870560e+02  3.52e-11 7.32e-13  5.02e-06    94s
  30   3.92999265e+02  3.70786544e+02  3.07e-11 5.61e-13  4.71e-06   102s
  31   3.92789556e+02  3.72189690e+02  2.90e-11 6.47e-13  4.36e-06   109s
  32   3.92343288e+02  3.73171728e+02  2.54e-11 6.47e-13  4.06e-06   114s
  33   3.91167695e+02  3.74287882e+02  4.79e-10 5.83e-13  3.58e-06   122s
  34   3.90729129e+02  3.75744390e+02  2.93e-09 8.10e-13  3.18e-06   130s
  35   3.90609608e+02  3.76180553e+02  3.05e-09 6.61e-13  3.06e-06   137s
  36   3.90433026e+02  3.76479711e+02  4.95e-09 7.32e-13  2.96e-06   145s
  37   3.90261109e+02  3.77219818e+02  4.79e-08 4.19e-13  2.76e-06   153s
  38   3.90141496e+02  3.77447194e+02  1.06e-07 6.89e-13  2.69e-06   161s
  39   3.90026074e+02  3.78032220e+02  1.45e-07 3.27e-13  2.54e-06   169s
  40   3.89925393e+02  3.78146761e+02  1.68e-07 3.55e-13  2.50e-06   176s
  41   3.89687882e+02  3.79879620e+02  1.32e-07 3.55e-13  2.08e-06   184s
  42   3.89495725e+02  3.80332981e+02  9.76e-08 9.52e-13  1.94e-06   192s
  43   3.89447336e+02  3.80925593e+02  8.58e-08 4.62e-13  1.81e-06   200s
  44   3.89415832e+02  3.80967700e+02  7.76e-08 4.55e-13  1.79e-06   206s
  45   3.89350528e+02  3.82000448e+02  6.39e-08 8.17e-13  1.56e-06   213s
  46   3.89331940e+02  3.82030716e+02  7.11e-08 8.81e-13  1.55e-06   218s
  47   3.89173210e+02  3.82513573e+02  1.03e-07 3.09e-13  1.41e-06   227s
  48   3.89136898e+02  3.83113657e+02  9.02e-08 1.01e-12  1.28e-06   234s
  49   3.89092920e+02  3.83498653e+02  5.76e-08 4.55e-13  1.19e-06   240s
  50   3.89077858e+02  3.83627293e+02  4.98e-08 2.56e-13  1.15e-06   247s
  51   3.89069511e+02  3.84096281e+02  4.37e-08 1.85e-13  1.05e-06   251s
  52   3.89063518e+02  3.84274141e+02  4.08e-08 7.11e-13  1.01e-06   259s
  53   3.89053317e+02  3.84644933e+02  3.18e-08 9.38e-13  9.34e-07   268s
  54   3.89040277e+02  3.85114557e+02  3.33e-08 3.55e-13  8.32e-07   276s
  55   3.89040122e+02  3.85264963e+02  2.87e-08 2.77e-13  8.00e-07   284s
  56   3.89033206e+02  3.85478506e+02  2.58e-08 1.34e-12  7.53e-07   291s
  57   3.89025792e+02  3.85710030e+02  1.66e-08 3.98e-13  7.03e-07   296s
  58   3.89018860e+02  3.86431148e+02  8.17e-09 5.83e-13  5.48e-07   304s
  59   3.89011815e+02  3.86534500e+02  5.52e-09 4.83e-13  5.25e-07   311s
  60   3.89009441e+02  3.86829784e+02  3.78e-09 3.55e-13  4.62e-07   317s
  61   3.89003419e+02  3.86923644e+02  2.40e-09 3.38e-13  4.41e-07   323s
  62   3.89007852e+02  3.87219638e+02  3.10e-09 8.03e-13  3.79e-07   328s
  63   3.89004139e+02  3.87335504e+02  2.47e-09 7.67e-13  3.54e-07   333s
  64   3.89010634e+02  3.87676745e+02  3.53e-09 5.54e-13  2.83e-07   337s
  65   3.88997801e+02  3.88232779e+02  2.81e-09 6.32e-13  1.62e-07   341s
  66   3.88995505e+02  3.88380293e+02  1.32e-09 6.25e-13  1.30e-07   344s
  67   3.88998922e+02  3.88538616e+02  2.19e-09 8.53e-14  9.75e-08   347s
  68   3.88995104e+02  3.88610556e+02  1.40e-09 4.62e-13  8.15e-08   350s
  69   3.88999337e+02  3.88824115e+02  1.65e-09 5.54e-13  3.71e-08   352s
  70   3.88997789e+02  3.88832038e+02  1.36e-09 1.85e-13  3.51e-08   353s
  71   3.88993399e+02  3.88857464e+02  5.37e-10 4.97e-14  2.88e-08   355s
  72   3.88992184e+02  3.88943005e+02  4.14e-10 1.49e-12  1.04e-08   357s
  73   3.88990841e+02  3.88987393e+02  1.55e-09 1.25e-12  7.30e-10   358s
  74   3.88990546e+02  3.88990534e+02  1.23e-09 2.35e-12  2.67e-12   359s
  75   3.88990546e+02  3.88990546e+02  2.30e-10 5.30e-12  2.46e-15   360s

Barrier solved model in 75 iterations and 360.08 seconds (275.37 work units)
Optimal objective 3.88990546e+02

Crossover log...

  632552 DPushes remaining with DInf 0.0000000e+00               363s
  107748 DPushes remaining with DInf 0.0000000e+00               366s
      46 DPushes remaining with DInf 0.0000000e+00               371s
       0 DPushes remaining with DInf 0.0000000e+00               372s

  234716 PPushes remaining with PInf 0.0000000e+00               372s
   98314 PPushes remaining with PInf 0.0000000e+00               377s
   79306 PPushes remaining with PInf 0.0000000e+00               381s
   67008 PPushes remaining with PInf 0.0000000e+00               386s
   33923 PPushes remaining with PInf 0.0000000e+00               394s
   22503 PPushes remaining with PInf 0.0000000e+00               398s
   14686 PPushes remaining with PInf 0.0000000e+00               402s
   11943 PPushes remaining with PInf 0.0000000e+00               406s
    8218 PPushes remaining with PInf 0.0000000e+00               414s
    6385 PPushes remaining with PInf 0.0000000e+00               418s
    4615 PPushes remaining with PInf 0.0000000e+00               422s
    3099 PPushes remaining with PInf 0.0000000e+00               426s
       0 PPushes remaining with PInf 0.0000000e+00               431s

  Push phase complete: Pinf 0.0000000e+00, Dinf 1.7071917e-12    431s

Iteration    Objective       Primal Inf.    Dual Inf.      Time
  525455    3.8899055e+02   0.000000e+00   7.862500e-02    465s

Solved in 525455 iterations and 465.15 seconds (372.82 work units)
Optimal objective  3.889905459e+02

Gurobi 9.5.0 (linux64) logging started Tue Sep 12 17:21:24 2023

Set parameter LogFile to value "/vsc-hard-mounts/leuven-data/348/vsc34888/JointResearch/05.Models/06.Benchmarking/A.The_full_year_MILP/9n/openStarNet_9n.log"
Set parameter Method to value 2
Set parameter MIPFocus to value 1
Set parameter Presolve to value 2
Set parameter RINS to value 100
Set parameter MIPGap to value 0.01
Set parameter Threads to value 36
Set parameter TimeLimit to value 76000
Set parameter IterationLimit to value 76000000
Gurobi Optimizer version 9.5.0 build v9.5.0rc5 (linux64)
Thread count: 36 physical cores, 36 logical processors, using up to 36 threads
Optimize a model with 4210755 rows, 1903327 columns and 13652102 nonzeros
Model fingerprint: 0x8bbfc28b
Variable types: 1903315 continuous, 12 integer (12 binary)
Coefficient statistics:
  Matrix range     [5e-04, 2e+02]
  Objective range  [1e+00, 1e+00]
  Bounds range     [4e-05, 1e+00]
  RHS range        [4e-05, 1e+00]
Presolve removed 1039596 rows and 244630 columns (presolve time = 5s) ...
Presolve removed 1458924 rows and 323245 columns (presolve time = 10s) ...
Presolve removed 1607427 rows and 471748 columns (presolve time = 15s) ...
Presolve removed 1607427 rows and 471748 columns (presolve time = 20s) ...
Presolve removed 1607427 rows and 481657 columns (presolve time = 25s) ...
Presolve removed 1607427 rows and 481657 columns (presolve time = 30s) ...
Presolve removed 1607427 rows and 481657 columns (presolve time = 35s) ...
Presolve removed 1607427 rows and 481657 columns (presolve time = 40s) ...
Presolve removed 1607427 rows and 481657 columns
Presolve time: 43.81s
Presolved: 2603328 rows, 1421670 columns, 9441306 nonzeros
Variable types: 1421658 continuous, 12 integer (12 binary)
Root relaxation presolve removed 0 rows and 0 columns (presolve time = 5s) ...
Root relaxation presolved: 2603328 rows, 1421670 columns, 9441306 nonzeros

Root barrier log...

Ordering time: 1.16s

Barrier statistics:
 Dense cols : 12
 AA' NZ     : 2.831e+07
 Factor NZ  : 5.740e+07 (roughly 2.0 GB of memory)
 Factor Ops : 1.716e+09 (less than 1 second per iteration)
 Threads    : 35

                  Objective                Residual
Iter       Primal          Dual         Primal    Dual     Compl     Time
   0   6.11199302e+05 -5.19859796e+07  7.54e+00 1.91e+00  2.80e+01    76s
   1   1.60697540e+05 -1.72969112e+07  9.81e-01 1.61e+00  4.91e+00    77s
   2   5.65759586e+04 -2.39537985e+06  4.81e-02 6.12e-02  5.25e-01    79s
   3   7.75630524e+03 -1.29792720e+05  2.39e-03 3.99e-10  2.82e-02    81s
   4   2.06396789e+03 -1.62672373e+04  2.15e-06 7.17e-11  3.75e-03    82s
   5   1.47942662e+03 -5.44938719e+03  7.57e-07 2.87e-11  1.42e-03    83s
   6   1.08792019e+03 -1.98955539e+03  4.01e-07 1.01e-11  6.29e-04    84s
   7   7.65106637e+02 -1.59374034e+02  1.86e-07 3.95e-12  1.89e-04    85s
   8   5.02887762e+02  2.56777555e+02  4.87e-08 1.73e-12  5.02e-05    87s
   9   4.98235905e+02  3.04078057e+02  4.67e-08 9.27e-13  3.96e-05    89s
  10   4.96855320e+02  3.22872846e+02  4.61e-08 6.18e-13  3.55e-05    90s
  11   4.90440250e+02  3.30678895e+02  4.32e-08 8.46e-13  3.26e-05    91s
  12   4.88002201e+02  3.39638545e+02  4.21e-08 8.46e-13  3.03e-05    93s
  13   4.57982481e+02  3.46950009e+02  2.80e-08 7.25e-13  2.26e-05    94s
  14   4.47073090e+02  3.53920527e+02  2.38e-08 6.75e-13  1.90e-05    96s
  15   4.37018951e+02  3.62122202e+02  1.97e-08 8.24e-13  1.53e-05    98s
  16   4.29290399e+02  3.68148698e+02  1.58e-08 1.14e-12  1.25e-05   100s
  17   4.24204248e+02  3.72992048e+02  1.35e-08 3.06e-13  1.04e-05   102s
  18   4.18312756e+02  3.76804701e+02  1.09e-08 6.32e-13  8.47e-06   105s
  19   4.14603781e+02  3.79695225e+02  9.02e-09 6.00e-13  7.12e-06   107s
  20   4.11109152e+02  3.81484333e+02  7.20e-09 7.18e-13  6.04e-06   109s
  21   4.08332385e+02  3.83716252e+02  5.72e-09 3.62e-13  5.02e-06   111s
  22   4.06175337e+02  3.85913812e+02  4.48e-09 3.62e-13  4.13e-06   114s
  23   4.03459125e+02  3.88114823e+02  2.98e-09 3.91e-13  3.13e-06   116s
  24   4.02303583e+02  3.89571900e+02  2.31e-09 6.32e-13  2.60e-06   118s
  25   4.01375422e+02  3.90736338e+02  1.78e-09 7.46e-13  2.17e-06   120s
  26   4.00410336e+02  3.91953309e+02  1.22e-09 1.07e-13  1.72e-06   123s
  27   3.99972742e+02  3.93241365e+02  9.77e-10 5.33e-13  1.37e-06   125s
  28   3.99732710e+02  3.93733817e+02  8.45e-10 6.82e-13  1.22e-06   127s
  29   3.99633426e+02  3.94130377e+02  7.89e-10 4.19e-13  1.12e-06   130s
  30   3.99417522e+02  3.94504630e+02  6.65e-10 2.49e-13  1.00e-06   131s
  31   3.99275031e+02  3.94679695e+02  5.83e-10 5.01e-13  9.37e-07   133s
  32   3.99002588e+02  3.95283565e+02  4.30e-10 3.13e-13  7.59e-07   135s
  33   3.98765345e+02  3.95720462e+02  2.95e-10 1.24e-12  6.21e-07   137s
  34   3.98695931e+02  3.95937052e+02  2.57e-10 6.54e-13  5.63e-07   139s
  35   3.98666170e+02  3.96024472e+02  2.40e-10 1.02e-12  5.39e-07   141s
  36   3.98527483e+02  3.96634080e+02  1.64e-10 1.52e-12  3.86e-07   143s
  37   3.98460133e+02  3.96879527e+02  1.43e-10 1.61e-12  3.22e-07   145s
  38   3.98370958e+02  3.97113467e+02  1.12e-10 6.86e-13  2.57e-07   148s
  39   3.98326036e+02  3.97177482e+02  6.05e-10 9.45e-13  2.34e-07   149s
  40   3.98287782e+02  3.97401993e+02  3.58e-10 6.04e-13  1.81e-07   152s
  41   3.98264897e+02  3.97454774e+02  1.45e-09 5.54e-13  1.65e-07   153s
  42   3.98235724e+02  3.97826359e+02  5.77e-08 4.55e-13  8.35e-08   156s
  43   3.98226085e+02  3.97851508e+02  7.16e-08 5.04e-13  7.64e-08   157s
  44   3.98220909e+02  3.97947947e+02  1.12e-07 8.03e-13  5.57e-08   159s
  45   3.98219267e+02  3.98085225e+02  1.06e-07 1.90e-12  2.73e-08   161s
  46   3.98218241e+02  3.98091265e+02  7.47e-08 1.45e-12  2.59e-08   162s
  47   3.98217876e+02  3.98142180e+02  7.14e-08 1.22e-12  1.54e-08   163s
  48   3.98215601e+02  3.98145075e+02  4.46e-08 1.07e-12  1.44e-08   165s
  49   3.98214896e+02  3.98204170e+02  3.27e-08 5.58e-13  2.19e-09   166s
  50   3.98214212e+02  3.98214112e+02  7.99e-09 3.20e-13  2.05e-11   167s
  51   3.98214153e+02  3.98214150e+02  9.82e-09 8.67e-13  6.86e-13   169s

Barrier solved model in 51 iterations and 168.93 seconds (120.92 work units)
Optimal objective 3.98214153e+02


Root crossover log...

 1816585 variables added to crossover basis                      170s

  474142 DPushes remaining with DInf 0.0000000e+00               171s
       0 DPushes remaining with DInf 0.0000000e+00               175s

  263432 PPushes remaining with PInf 0.0000000e+00               175s
   69963 PPushes remaining with PInf 0.0000000e+00               181s
   31203 PPushes remaining with PInf 0.0000000e+00               187s
   19442 PPushes remaining with PInf 0.0000000e+00               194s
    9372 PPushes remaining with PInf 0.0000000e+00               200s
    3237 PPushes remaining with PInf 0.0000000e+00               208s
    1937 PPushes remaining with PInf 0.0000000e+00               212s
       0 PPushes remaining with PInf 0.0000000e+00               215s

  Push phase complete: Pinf 0.0000000e+00, Dinf 4.0399691e-12    216s


Root simplex log...

Iteration    Objective       Primal Inf.    Dual Inf.      Time
  490079    3.9821415e+02   0.000000e+00   0.000000e+00    228s
  490079    3.9821415e+02   0.000000e+00   0.000000e+00    240s

Root relaxation: objective 3.982142e+02, 490079 iterations, 180.24 seconds (139.18 work units)

    Nodes    |    Current Node    |     Objective Bounds      |     Work
 Expl Unexpl |  Obj  Depth IntInf | Incumbent    BestBd   Gap | It/Node Time

     0     0  398.21415    0    2          -  398.21415      -     -  241s
H    0     0                    9182.3966691  398.21415  95.7%     -  275s
     0     0  432.39384    0    1 9182.39667  432.39384  95.3%     - 1868s
H    0     0                     432.4081909  432.39384  0.00%     - 1898s

Cutting planes:
  Implied bound: 10333
  MIR: 21368
  RLT: 351
  Relax-and-lift: 69

Explored 1 nodes (589606 simplex iterations) in 1898.33 seconds (1895.22 work units)
Thread count was 36 (of 36 available processors)

Solution count 2: 432.408 9182.4 

Optimal solution found (tolerance 1.00e-02)
Best objective 4.324081908780e+02, best bound 4.323938364019e+02, gap 0.0033%

Gurobi 9.5.0 (linux64) logging started Tue Sep 12 17:55:12 2023

Set parameter LogFile to value "/vsc-hard-mounts/leuven-data/348/vsc34888/JointResearch/05.Models/06.Benchmarking/A.The_full_year_MILP/9n/openStarNet_9n.log"
Set parameter Method to value 2
Set parameter MIPFocus to value 1
Set parameter Presolve to value 2
Set parameter RINS to value 100
Set parameter MIPGap to value 0.01
Set parameter Threads to value 36
Set parameter TimeLimit to value 76000
Set parameter IterationLimit to value 76000000
No parameters matching 'relax_integrality' found
Gurobi Optimizer version 9.5.0 build v9.5.0rc5 (linux64)
Thread count: 36 physical cores, 36 logical processors, using up to 36 threads
Optimize a model with 4210755 rows, 1903315 columns and 11974778 nonzeros
Model fingerprint: 0x8844f8d6
Coefficient statistics:
  Matrix range     [5e-04, 2e+02]
  Objective range  [1e+00, 1e+00]
  Bounds range     [4e-05, 1e+00]
  RHS range        [4e-05, 4e+01]
Presolve removed 2398095 rows and 899016 columns (presolve time = 5s) ...
Presolve removed 2403363 rows and 921756 columns (presolve time = 10s) ...
Presolve removed 2794727 rows and 930322 columns
Presolve time: 13.93s
Presolved: 1416028 rows, 1357377 columns, 5086809 nonzeros

Ordering time: 0.67s

Barrier statistics:
 AA' NZ     : 1.359e+07
 Factor NZ  : 2.626e+07 (roughly 1.3 GB of memory)
 Factor Ops : 5.639e+08 (less than 1 second per iteration)
 Threads    : 36

                  Objective                Residual
Iter       Primal          Dual         Primal    Dual     Compl     Time
   0   9.36677692e+05 -2.32857970e+07  3.62e+00 1.89e+01  3.46e+01    17s
   1   1.22327300e+05 -8.75441083e+06  3.03e-01 1.63e-02  4.37e+00    18s
   2   3.65941912e+04 -1.31832711e+06  2.84e-02 8.84e-04  5.13e-01    18s
   3   8.22888893e+03 -1.43833802e+05  3.36e-03 5.89e-05  5.37e-02    19s
   4   2.81236524e+03 -1.44262294e+04  7.51e-04 4.85e-06  6.01e-03    20s
   5   1.18503088e+03 -4.93923737e+03  7.18e-05 1.66e-06  2.12e-03    20s
   6   8.83617137e+02 -1.77877097e+03  2.58e-05 6.54e-07  9.22e-04    21s
   7   7.10713653e+02 -6.97689921e+02  1.30e-05 3.11e-07  4.88e-04    21s
   8   5.55343059e+02 -1.27411743e+02  5.26e-06 1.38e-07  2.36e-04    22s
   9   5.04812444e+02  2.40974177e+02  3.10e-06 4.30e-08  9.14e-05    22s
  10   4.48276784e+02  4.03239596e+02  6.43e-07 4.24e-09  1.56e-05    23s
  11   4.35630261e+02  4.30133800e+02  1.25e-07 1.97e-10  1.90e-06    24s
  12   4.33222008e+02  4.32224568e+02  3.08e-08 7.78e-12  3.45e-07    24s
  13   4.32707800e+02  4.32388310e+02  1.12e-08 1.57e-13  1.11e-07    25s
  14   4.32459139e+02  4.32401679e+02  2.67e-09 2.13e-14  1.99e-08    25s
  15   4.32408724e+02  4.32407751e+02  6.53e-09 2.13e-14  3.37e-10    26s
  16   4.32408198e+02  4.32408190e+02  9.20e-10 2.13e-14  2.53e-12    26s
  17   4.32408191e+02  4.32408191e+02  5.42e-10 1.42e-14  5.15e-18    27s

Barrier solved model in 17 iterations and 26.87 seconds (22.41 work units)
Optimal objective 4.32408191e+02

Crossover log...

  167299 DPushes remaining with DInf 0.0000000e+00                29s
    1350 DPushes remaining with DInf 0.0000000e+00                31s
       0 DPushes remaining with DInf 0.0000000e+00                32s

  200133 PPushes remaining with PInf 0.0000000e+00                32s
   86933 PPushes remaining with PInf 0.0000000e+00                39s
   65358 PPushes remaining with PInf 0.0000000e+00                43s
   50795 PPushes remaining with PInf 0.0000000e+00                46s
   30275 PPushes remaining with PInf 0.0000000e+00                52s
   19410 PPushes remaining with PInf 0.0000000e+00                57s
   15058 PPushes remaining with PInf 0.0000000e+00                62s
   12858 PPushes remaining with PInf 0.0000000e+00                68s
   11126 PPushes remaining with PInf 0.0000000e+00                72s
    9335 PPushes remaining with PInf 0.0000000e+00                78s
    7763 PPushes remaining with PInf 0.0000000e+00                84s
    6218 PPushes remaining with PInf 0.0000000e+00                90s
    4721 PPushes remaining with PInf 0.0000000e+00                97s
    3313 PPushes remaining with PInf 0.0000000e+00               103s
    2207 PPushes remaining with PInf 0.0000000e+00               109s
       0 PPushes remaining with PInf 0.0000000e+00               116s

  Push phase complete: Pinf 0.0000000e+00, Dinf 9.3984542e-13    116s

Iteration    Objective       Primal Inf.    Dual Inf.      Time
  298693    4.3240819e+02   0.000000e+00   7.862500e-02    155s

Solved in 298693 iterations and 155.08 seconds (157.92 work units)
Optimal objective  4.324081909e+02

Gurobi 9.5.0 (linux64) logging started Tue Sep 12 20:20:32 2023

Set parameter LogFile to value "/vsc-hard-mounts/leuven-data/348/vsc34888/JointResearch/05.Models/06.Benchmarking/A.The_full_year_MILP/9n/openStarNet_9n.log"
Set parameter Method to value 2
Set parameter MIPFocus to value 1
Set parameter Presolve to value 2
Set parameter RINS to value 100
Set parameter MIPGap to value 0.01
Set parameter Threads to value 36
Set parameter TimeLimit to value 76000
Set parameter IterationLimit to value 76000000
Gurobi Optimizer version 9.5.0 build v9.5.0rc5 (linux64)
Thread count: 36 physical cores, 36 logical processors, using up to 36 threads
Optimize a model with 4210755 rows, 1903327 columns and 13652102 nonzeros
Model fingerprint: 0xea931212
Variable types: 1903315 continuous, 12 integer (12 binary)
Coefficient statistics:
  Matrix range     [5e-04, 2e+02]
  Objective range  [1e+00, 1e+00]
  Bounds range     [4e-05, 1e+00]
  RHS range        [4e-05, 1e+00]
Presolve removed 1039596 rows and 244630 columns (presolve time = 5s) ...
Presolve removed 1458924 rows and 323245 columns (presolve time = 10s) ...
Presolve removed 1607427 rows and 471748 columns (presolve time = 15s) ...
Presolve removed 1616163 rows and 515428 columns (presolve time = 20s) ...
Presolve removed 1616163 rows and 515428 columns (presolve time = 25s) ...
Presolve removed 1616163 rows and 515428 columns (presolve time = 30s) ...
Presolve removed 1616163 rows and 515428 columns (presolve time = 36s) ...
Presolve removed 1616163 rows and 515428 columns
Presolve time: 37.54s
Presolved: 2594592 rows, 1387899 columns, 9390063 nonzeros
Variable types: 1387887 continuous, 12 integer (12 binary)
Root relaxation presolve removed 0 rows and 0 columns (presolve time = 5s) ...
Root relaxation presolve removed 0 rows and 0 columns (presolve time = 10s) ...
Root relaxation presolved: 2594592 rows, 1387899 columns, 9390063 nonzeros

Root barrier log...

Ordering time: 1.16s

Barrier statistics:
 Dense cols : 12
 AA' NZ     : 2.830e+07
 Factor NZ  : 5.725e+07 (roughly 2.0 GB of memory)
 Factor Ops : 1.714e+09 (less than 1 second per iteration)
 Threads    : 35

                  Objective                Residual
Iter       Primal          Dual         Primal    Dual     Compl     Time
   0   6.46656245e+05 -4.51494922e+07  8.06e+00 1.97e+00  2.77e+01    72s
   1   1.74208689e+05 -1.46996475e+07  1.16e+00 1.70e+00  4.69e+00    73s
   2   6.48276480e+04 -2.50760877e+06  4.24e-02 3.82e-02  5.59e-01    75s
   3   9.68971840e+03 -1.80856606e+05  2.84e-03 2.85e-10  3.97e-02    76s
   4   2.34960127e+03 -1.64667421e+04  5.43e-05 2.70e-11  3.91e-03    78s
   5   1.39850846e+03 -5.41769165e+03  1.07e-05 8.62e-12  1.41e-03    79s
   6   1.12421531e+03 -2.38269788e+03  6.71e-06 3.92e-12  7.27e-04    80s
   7   8.70385746e+02 -4.77387868e+02  3.86e-06 1.52e-12  2.79e-04    81s
   8   5.91110417e+02  1.37335041e+02  1.25e-06 1.31e-12  9.39e-05    82s
   9   5.02020888e+02  2.72894272e+02  6.38e-07 1.42e-12  4.74e-05    84s
  10   4.96225382e+02  2.93640063e+02  6.04e-07 5.22e-13  4.19e-05    86s
  11   4.95282405e+02  3.01741605e+02  5.98e-07 1.02e-12  4.00e-05    87s
  12   4.72480084e+02  3.10735414e+02  4.43e-07 8.38e-13  3.35e-05    88s
  13   4.67014603e+02  3.21751716e+02  4.07e-07 5.44e-13  3.01e-05    89s
  14   4.64906279e+02  3.32769782e+02  3.94e-07 5.47e-13  2.73e-05    91s
  15   4.51684278e+02  3.41240995e+02  3.04e-07 3.27e-13  2.28e-05    93s
  16   4.49251260e+02  3.45855975e+02  2.91e-07 3.06e-13  2.14e-05    95s
  17   4.31281528e+02  3.58879737e+02  1.67e-07 3.77e-13  1.50e-05    97s
  18   4.24143799e+02  3.71014611e+02  1.14e-07 5.61e-13  1.10e-05    99s
  19   4.20486081e+02  3.80557116e+02  8.70e-08 8.10e-13  8.26e-06   101s
  20   4.17496752e+02  3.85725652e+02  6.64e-08 5.90e-13  6.57e-06   103s
  21   4.14850980e+02  3.90236502e+02  4.73e-08 9.73e-13  5.09e-06   106s
  22   4.13678610e+02  3.93432869e+02  3.85e-08 8.38e-13  4.19e-06   107s
  23   4.12385579e+02  3.96069456e+02  2.91e-08 1.01e-12  3.38e-06   110s
  24   4.11708061e+02  3.98209284e+02  2.42e-08 5.26e-13  2.79e-06   112s
  25   4.10943410e+02  3.99474681e+02  1.88e-08 5.61e-13  2.37e-06   114s
  26   4.10626755e+02  3.99968985e+02  1.65e-08 5.51e-13  2.20e-06   115s
  27   4.10297156e+02  4.01391071e+02  1.41e-08 3.13e-13  1.84e-06   117s
  28   4.09893032e+02  4.02653723e+02  1.11e-08 4.33e-13  1.50e-06   119s
  29   4.09552966e+02  4.03813755e+02  8.57e-09 8.24e-13  1.19e-06   122s
  30   4.09275729e+02  4.04568449e+02  6.59e-09 7.96e-13  9.74e-07   124s
  31   4.09131631e+02  4.04744102e+02  5.62e-09 2.27e-13  9.08e-07   126s
  32   4.09071731e+02  4.04877507e+02  5.22e-09 3.13e-13  8.68e-07   127s
  33   4.08940490e+02  4.05468679e+02  4.29e-09 9.88e-13  7.18e-07   130s
  34   4.08804849e+02  4.05864516e+02  6.83e-07 1.15e-12  6.08e-07   132s
  35   4.08773033e+02  4.05951462e+02  8.18e-07 7.60e-13  5.84e-07   133s
  36   4.08671452e+02  4.06072931e+02  1.28e-06 9.09e-13  5.38e-07   135s
  37   4.08616011e+02  4.06449524e+02  1.56e-06 7.18e-13  4.48e-07   137s
  38   4.08577907e+02  4.06588981e+02  1.74e-06 4.76e-13  4.11e-07   139s
  39   4.08534527e+02  4.06673242e+02  1.89e-06 4.80e-13  3.85e-07   141s
  40   4.08506374e+02  4.06847144e+02  1.94e-06 2.66e-13  3.43e-07   144s
  41   4.08493228e+02  4.06910987e+02  1.93e-06 5.12e-13  3.27e-07   145s
  42   4.08473699e+02  4.07094279e+02  1.94e-06 5.54e-13  2.85e-07   147s
  43   4.08437705e+02  4.07275323e+02  1.87e-06 5.97e-13  2.40e-07   149s
  44   4.08427156e+02  4.07309204e+02  1.86e-06 7.39e-13  2.31e-07   151s
  45   4.08413890e+02  4.07354945e+02  1.79e-06 5.26e-13  2.19e-07   153s
  46   4.08394412e+02  4.07466504e+02  1.72e-06 5.19e-13  1.92e-07   155s
  47   4.08374013e+02  4.07575702e+02  1.59e-06 8.70e-13  1.65e-07   157s
  48   4.08365516e+02  4.07592180e+02  1.53e-06 3.13e-13  1.60e-07   159s
  49   4.08358575e+02  4.07645144e+02  1.47e-06 8.53e-13  1.48e-07   161s
  50   4.08336721e+02  4.07719180e+02  1.31e-06 5.79e-13  1.28e-07   163s
  51   4.08331097e+02  4.07818098e+02  1.26e-06 7.74e-13  1.06e-07   165s
  52   4.08320405e+02  4.07880982e+02  1.15e-06 8.03e-13  9.09e-08   168s
  53   4.08313460e+02  4.07906458e+02  1.05e-06 2.03e-13  8.42e-08   169s
  54   4.08311409e+02  4.07912255e+02  1.00e-06 1.26e-12  8.26e-08   171s
  55   4.08310330e+02  4.07917745e+02  9.86e-07 2.45e-13  8.12e-08   177s
  56   4.08309355e+02  4.07921645e+02  9.73e-07 7.28e-13  8.02e-08   180s
  57   4.08307418e+02  4.07947546e+02  9.46e-07 8.53e-13  7.45e-08   182s
  58   4.08299227e+02  4.07961151e+02  8.40e-07 4.26e-13  6.99e-08   184s
  59   4.08295490e+02  4.08002229e+02  7.78e-07 4.83e-13  6.07e-08   186s
  60   4.08290353e+02  4.08046950e+02  6.95e-07 9.24e-13  5.04e-08   189s
  61   4.08288650e+02  4.08053301e+02  6.60e-07 6.04e-13  4.87e-08   192s
  62   4.08286544e+02  4.08073465e+02  6.28e-07 6.11e-13  4.41e-08   197s
  63   4.08284154e+02  4.08090298e+02  5.74e-07 6.75e-13  4.01e-08   199s
  64   4.08281292e+02  4.08097217e+02  5.17e-07 5.04e-13  3.81e-08   201s
  65   4.08280524e+02  4.08100854e+02  5.00e-07 9.66e-13  3.72e-08   204s
  66   4.08279891e+02  4.08104245e+02  4.81e-07 7.25e-13  3.63e-08   206s
  67   4.08278935e+02  4.08114732e+02  4.58e-07 4.48e-13  3.40e-08   208s
  68   4.08277254e+02  4.08116203e+02  4.10e-07 1.07e-12  3.33e-08   210s
  69   4.08275643e+02  4.08133243e+02  3.72e-07 4.09e-13  2.95e-08   213s
  70   4.08275015e+02  4.08134446e+02  3.49e-07 8.03e-13  2.91e-08   217s
  71   4.08273338e+02  4.08168736e+02  3.26e-07 6.61e-13  2.16e-08   220s
  72   4.08270811e+02  4.08171043e+02  2.33e-07 8.74e-13  2.06e-08   225s
  73   4.08270035e+02  4.08200214e+02  2.18e-07 3.84e-13  1.44e-08   228s
  74   4.08269927e+02  4.08202217e+02  1.93e-07 1.88e-13  1.40e-08   234s
  75   4.08269321e+02  4.08216798e+02  1.82e-07 6.89e-13  1.09e-08   236s
  76   4.08268800e+02  4.08220221e+02  1.68e-07 8.53e-13  1.01e-08   243s
  77   4.08268063e+02  4.08225366e+02  1.41e-07 8.88e-13  8.83e-09   249s
  78   4.08267513e+02  4.08233625e+02  1.30e-07 5.68e-13  7.01e-09   251s
  79   4.08266833e+02  4.08234585e+02  9.13e-08 1.21e-13  6.67e-09   254s
  80   4.08266172e+02  4.08243433e+02  8.09e-08 4.83e-13  4.70e-09   256s
  81   4.08266070e+02  4.08246882e+02  7.90e-08 5.97e-13  3.97e-09   258s
  82   4.08265675e+02  4.08250428e+02  7.04e-08 3.73e-13  3.15e-09   261s
  83   4.08264721e+02  4.08261244e+02  5.06e-08 5.26e-13  7.19e-10   263s
  84   4.08264327e+02  4.08261291e+02  1.35e-06 3.27e-13  6.28e-10   268s
  85   4.08264249e+02  4.08261588e+02  1.30e-06 6.04e-13  5.50e-10   271s
  86   4.08264158e+02  4.08261775e+02  1.21e-06 3.77e-13  4.93e-10   273s
  87   4.08263724e+02  4.08262277e+02  8.68e-07 4.48e-13  2.99e-10   274s
  88   4.08263733e+02  4.08262299e+02  7.54e-07 4.48e-13  2.96e-10   277s
  89   4.08263621e+02  4.08262451e+02  6.69e-07 2.77e-13  2.42e-10   279s
  90   4.08263560e+02  4.08262562e+02  6.27e-07 1.46e-12  2.06e-10   281s
  91   4.08263457e+02  4.08262594e+02  5.46e-07 1.13e-12  1.78e-10   282s
  92   4.08263417e+02  4.08262600e+02  5.03e-07 6.08e-13  1.69e-10   284s
  93   4.08263354e+02  4.08262601e+02  4.56e-07 9.66e-13  1.56e-10   286s
  94   4.08263319e+02  4.08262602e+02  5.57e-07 9.20e-13  1.48e-10   287s
  95   4.08263248e+02  4.08262606e+02  4.54e-07 6.36e-13  1.33e-10   290s
  96   4.08263256e+02  4.08262607e+02  3.16e-06 7.92e-13  1.34e-10   291s
  97   4.08263252e+02  4.08262610e+02  3.23e-06 1.64e-12  1.33e-10   293s
  98   4.08263245e+02  4.08262614e+02  3.18e-06 1.12e-12  1.30e-10   295s
  99   4.08263235e+02  4.08262619e+02  3.08e-06 8.10e-13  1.27e-10   297s
 100   4.08263218e+02  4.08262622e+02  2.96e-06 1.41e-12  1.23e-10   298s
 101   4.08263151e+02  4.08262626e+02  2.57e-06 3.98e-13  1.09e-10   300s
 102   4.08263098e+02  4.08262635e+02  2.26e-06 1.03e-12  9.57e-11   301s
 103   4.08263070e+02  4.08262641e+02  2.10e-06 8.17e-13  8.86e-11   303s
 104   4.08262961e+02  4.08262648e+02  1.48e-06 2.91e-13  6.48e-11   304s
 105   4.08262820e+02  4.08262663e+02  7.26e-07 1.14e-12  3.25e-11   306s
 106   4.08262811e+02  4.08262679e+02  6.85e-07 1.07e-14  2.72e-11   307s
 107   4.08262797e+02  4.08262687e+02  5.98e-07 6.25e-13  2.27e-11   309s
 108   4.08262731e+02  4.08262689e+02  3.42e-07 1.34e-12  8.66e-12   310s
 109   4.08262731e+02  4.08262693e+02  3.41e-07 7.99e-13  7.84e-12   312s
 110   4.08262726e+02  4.08262693e+02  2.95e-07 1.39e-12  6.69e-12   313s
 111   4.08262725e+02  4.08262695e+02  2.92e-07 1.04e-11  6.30e-12   314s
 112   4.08262724e+02  4.08262695e+02  2.76e-07 1.15e-12  5.94e-12   316s
 113   4.08262707e+02  4.08262695e+02  4.68e-07 6.02e-11  2.45e-12   317s
 114   4.08262706e+02  4.08262695e+02  4.20e-07 4.28e-13  2.20e-12   319s
 115   4.08262706e+02  4.08262695e+02  4.15e-07 3.02e-10  2.16e-12   320s
 116   4.08262706e+02  4.08262695e+02  4.15e-07 2.87e-10  2.16e-12   321s

Barrier solved model in 116 iterations and 321.50 seconds (239.88 work units)
Optimal objective 4.08262706e+02


Root crossover log...

  298754 DPushes remaining with DInf 2.0461228e-03               324s
       1 DPushes remaining with DInf 0.0000000e+00               326s
       0 DPushes remaining with DInf 0.0000000e+00               326s

  374660 PPushes remaining with PInf 0.0000000e+00               327s
  103555 PPushes remaining with PInf 0.0000000e+00               334s
   83260 PPushes remaining with PInf 0.0000000e+00               335s
   38547 PPushes remaining with PInf 0.0000000e+00               341s
   25609 PPushes remaining with PInf 0.0000000e+00               347s
   15578 PPushes remaining with PInf 0.0000000e+00               355s
    6956 PPushes remaining with PInf 0.0000000e+00               360s
    2980 PPushes remaining with PInf 0.0000000e+00               365s
    1612 PPushes remaining with PInf 0.0000000e+00               369s
       0 PPushes remaining with PInf 3.4737850e-06               374s

  Push phase complete: Pinf 3.4737850e-06, Dinf 3.8760495e-11    374s


Root simplex log...

Iteration    Objective       Primal Inf.    Dual Inf.      Time
  533463    4.0826270e+02   3.473785e-06   0.000000e+00    391s
  533464    4.0826270e+02   0.000000e+00   0.000000e+00    396s
  533464    4.0826270e+02   0.000000e+00   0.000000e+00    407s

Root relaxation: objective 4.082627e+02, 533464 iterations, 353.55 seconds (275.53 work units)

    Nodes    |    Current Node    |     Objective Bounds      |     Work
 Expl Unexpl |  Obj  Depth IntInf | Incumbent    BestBd   Gap | It/Node Time

     0     0  408.26270    0    2          -  408.26270      -     -  409s
H    0     0                    16246.530490  408.26270  97.5%     -  464s
*    0     0               0     440.1912829  440.19128  0.00%     - 1988s

Cutting planes:
  Implied bound: 10886
  MIR: 34483
  RLT: 30
  Relax-and-lift: 670

Explored 1 nodes (695826 simplex iterations) in 1988.54 seconds (2022.57 work units)
Thread count was 36 (of 36 available processors)

Solution count 2: 440.191 16246.5 

Optimal solution found (tolerance 1.00e-02)
Best objective 4.401912828844e+02, best bound 4.401912828844e+02, gap 0.0000%

Gurobi 9.5.0 (linux64) logging started Tue Sep 12 20:55:47 2023

Set parameter LogFile to value "/vsc-hard-mounts/leuven-data/348/vsc34888/JointResearch/05.Models/06.Benchmarking/A.The_full_year_MILP/9n/openStarNet_9n.log"
Set parameter Method to value 2
Set parameter MIPFocus to value 1
Set parameter Presolve to value 2
Set parameter RINS to value 100
Set parameter MIPGap to value 0.01
Set parameter Threads to value 36
Set parameter TimeLimit to value 76000
Set parameter IterationLimit to value 76000000
No parameters matching 'relax_integrality' found
Gurobi Optimizer version 9.5.0 build v9.5.0rc5 (linux64)
Thread count: 36 physical cores, 36 logical processors, using up to 36 threads
Optimize a model with 4210755 rows, 1903315 columns and 11974778 nonzeros
Model fingerprint: 0xc29f0eb3
Coefficient statistics:
  Matrix range     [5e-04, 2e+02]
  Objective range  [1e+00, 1e+00]
  Bounds range     [4e-05, 1e+00]
  RHS range        [4e-05, 5e+01]
Presolve removed 2424303 rows and 851824 columns (presolve time = 5s) ...
Presolve removed 2424303 rows and 878032 columns (presolve time = 10s) ...
Presolve removed 2782479 rows and 895148 columns
Presolve time: 13.99s
Presolved: 1428276 rows, 1357607 columns, 5135987 nonzeros

Ordering time: 0.68s

Barrier statistics:
 AA' NZ     : 1.364e+07
 Factor NZ  : 2.645e+07 (roughly 1.3 GB of memory)
 Factor Ops : 5.669e+08 (less than 1 second per iteration)
 Threads    : 36

                  Objective                Residual
Iter       Primal          Dual         Primal    Dual     Compl     Time
   0   3.00537166e+06 -1.61707195e+07  2.23e+01 1.54e+01  1.13e+02    17s
   1   3.95149811e+05 -1.68273779e+07  2.20e+00 3.40e-03  1.46e+01    18s
   2   1.18743115e+05 -4.49313793e+06  4.67e-01 4.53e-06  2.75e+00    18s
   3   3.08734614e+04 -1.10551720e+06  9.19e-03 2.07e-07  4.04e-01    19s
   4   7.47952014e+03 -1.13982412e+05  1.24e-03 1.67e-08  4.21e-02    19s
   5   3.60772981e+03 -2.79772405e+04  4.78e-04 3.99e-09  1.09e-02    20s
   6   1.67337862e+03 -1.06757947e+04  8.83e-05 1.51e-09  4.26e-03    20s
   7   1.06811726e+03 -3.62518972e+03  1.61e-05 5.30e-10  1.62e-03    20s
   8   6.94944316e+02 -1.04524567e+03  2.50e-06 1.74e-10  6.00e-04    21s
   9   5.59804342e+02 -1.31603781e+02  1.16e-06 6.45e-11  2.39e-04    21s
  10   4.71634283e+02  3.05891616e+02  3.15e-07 1.30e-11  5.72e-05    22s
  11   4.43576222e+02  4.27794200e+02  2.56e-08 6.50e-13  5.44e-06    23s
  12   4.40884896e+02  4.39207548e+02  4.82e-09 3.17e-14  5.79e-07    23s
  13   4.40384506e+02  4.40141327e+02  1.33e-09 1.07e-14  8.39e-08    24s
  14   4.40218367e+02  4.40189451e+02  3.33e-09 1.07e-14  9.98e-09    24s
  15   4.40201352e+02  4.40191137e+02  1.29e-07 1.07e-14  3.52e-09    25s
  16   4.40191291e+02  4.40191283e+02  4.35e-09 7.11e-15  2.72e-12    25s
  17   4.40191283e+02  4.40191283e+02  1.65e-10 7.11e-15  2.72e-15    26s

Barrier solved model in 17 iterations and 26.10 seconds (22.79 work units)
Optimal objective 4.40191283e+02

Crossover log...

  188927 DPushes remaining with DInf 0.0000000e+00                28s
       7 DPushes remaining with DInf 0.0000000e+00                30s

  210605 PPushes remaining with PInf 0.0000000e+00                31s
   88769 PPushes remaining with PInf 0.0000000e+00                37s
   75336 PPushes remaining with PInf 0.0000000e+00                41s
   22255 PPushes remaining with PInf 0.0000000e+00                48s
   12316 PPushes remaining with PInf 0.0000000e+00                52s
    7113 PPushes remaining with PInf 0.0000000e+00                56s
    2640 PPushes remaining with PInf 0.0000000e+00                64s
    1428 PPushes remaining with PInf 0.0000000e+00                68s
     747 PPushes remaining with PInf 0.0000000e+00                71s
       0 PPushes remaining with PInf 0.0000000e+00                76s

  Push phase complete: Pinf 0.0000000e+00, Dinf 1.4799604e-12     76s

Iteration    Objective       Primal Inf.    Dual Inf.      Time
  316487    4.4019128e+02   0.000000e+00   7.862500e-02    122s

Solved in 316487 iterations and 122.35 seconds (121.08 work units)
Optimal objective  4.401912829e+02
